p cnf 15 30
6 -8 -10 0
-2 3 4 0
1 2 7 0
-3 7 9 0
-1 -8 13 0
-4 -6 -11 0
4 -9 11 0
4 12 -14 0
-1 -7 10 0
-5 -7 11 0
6 -7 -13 0
-10 11 -15 0
-4 -10 14 0
-1 2 14 0
2 -5 -10 0
3 10 -14 0
4 10 11 0
-2 -4 -14 0
-4 9 -14 0
4 -5 15 0
-1 2 13 0
3 -8 -15 0
-3 4 8 0
-5 -12 -14 0
1 3 -9 0
4 -10 11 0
-2 4 -15 0
-3 7 8 0
3 -9 15 0
12 14 15 0
